
   AbsCon 1.41 (January, 2014) - defaultConfiguration

   
   instance
        framework=CSP  name=Isomorphism-/cluster/gpg/ciaran/sip-benchmarks/benchmarks/LV/g25-/cluster/gpg/ciaran/sip-benchmarks/benchmarks/LV/g40
        parameters=/cluster/gpg/ciaran/sip-benchmarks/benchmarks/LV/g25,/cluster/gpg/ciaran/sip-benchmarks/benchmarks/LV/g40
      

   loading variables...
        nbVariables=75  nbDomainTypes=1  nbTotalValues=9075  domainSizes=(121:75)
          =>  wckTime=0.193  cpuTime=0.304  mem=9M987

   loading objectives...

   loading constraints...
        nbConstraints=115  nbSpecificConstraints=1  nbExtensionStructures=(1,shared:113)  nbConflictsStructures=(1,shared:113,unbuilt:1)
        degrees=(1:44)(2:6)(3:3)...(13:1)(14:1)(21:1)  arities=(2:114)(75:1)  types=(AllDifferent:1)(ConstraintHardExtensionV-Bits:114)
          =>  wckTime=0.295  cpuTime=0.401  mem=5M3

   INFO : <!-- Start saving the XML representation -->

   INFO : <!-- Stop saving the XML representation of g40.xml -->

   Solver SolverBacktrack being built... 
          =>  wckTime=0.46  cpuTime=0.543  mem=20M183

    instantiation X0=18 X1=5 X2=19 X3=26 X4=24 X5=20 X6=16 X7=21 X8=7 X9=23 X10=25 X11=4 X12=27 X13=29 X14=31 X15=33 X16=35 X17=36 X18=37 X19=38 X20=39 X21=2 X22=40 X23=22 X24=41 X25=42 X26=6 X27=43 X28=28 X29=8 X30=45 X31=47 X32=10 X33=49 X34=50 X35=51 X36=52 X37=9 X38=53 X39=54 X40=55 X41=56 X42=30 X43=17 X44=57 X45=1 X46=58 X47=59 X48=60 X49=14 X50=32 X51=61 X52=12 X53=62 X54=63 X55=64 X56=65 X57=67 X58=68 X59=69 X60=0 X61=3 X62=46 X63=70 X64=66 X65=13 X66=88 X67=11 X68=34 X69=15 X70=48 X71=71 X72=44 X73=110 X74=72 

    solution X0=18 X1=5 X2=19 X3=26 X4=24 X5=20 X6=16 X7=21 X8=7 X9=23 X10=25 X11=4 X12=27 X13=29 X14=31 X15=33 X16=35 X17=36 X18=37 X19=38 X20=39 X21=2 X22=40 X23=22 X24=41 X25=42 X26=6 X27=43 X28=28 X29=8 X30=45 X31=47 X32=10 X33=49 X34=50 X35=51 X36=52 X37=9 X38=53 X39=54 X40=55 X41=56 X42=30 X43=17 X44=57 X45=1 X46=58 X47=59 X48=60 X49=14 X50=32 X51=61 X52=12 X53=62 X54=63 X55=64 X56=65 X57=67 X58=68 X59=69 X60=0 X61=3 X62=46 X63=70 X64=66 X65=13 X66=88 X67=11 X68=34 X69=15 X70=48 X71=71 X72=44 X73=110 X74=72 

   
   search
        run=0  nbConstraintChecks=115  depth=(min:6,max:74,avg:7)  nbEffectivePropagations=2446  nbRevisions=1141  nbUselessRevisions=1138
        nbAssignments=76  nbFailedAssignments=1  nbBacktracks=0  nbVisitedNodes=78  nbRestartNogoods=0  nbFoundSolutions=1  upperBound=9223372036854775807
          =>  wckTime=1.093  cpuTime=1.616  mem=29M532

   
   global
        nbConstraintChecks=115  nbEffectivePropagations=2446  nbRevisions=1141  nbUselessRevisions=1138  nbRestartNogoods=0  solvingWckTime=1.093
        expiredTime=no  totalExploration=no  nbFoundSolutions=1  firstSolutionCpuTime=1.613  Stop=REACHED_GOAL
          =>  wckTime=1.553  cpuTime=1.617  mem=29M532

s SATISFIABLE
v X0=18 X1=5 X2=19 X3=26 X4=24 X5=20 X6=16 X7=21 X8=7 X9=23 X10=25 X11=4 X12=27 X13=29 X14=31 X15=33 X16=35 X17=36 X18=37 X19=38 X20=39 X21=2 X22=40 X23=22 X24=41 X25=42 X26=6 X27=43 X28=28 X29=8 X30=45 X31=47 X32=10 X33=49 X34=50 X35=51 X36=52 X37=9 X38=53 X39=54 X40=55 X41=56 X42=30 X43=17 X44=57 X45=1 X46=58 X47=59 X48=60 X49=14 X50=32 X51=61 X52=12 X53=62 X54=63 X55=64 X56=65 X57=67 X58=68 X59=69 X60=0 X61=3 X62=46 X63=70 X64=66 X65=13 X66=88 X67=11 X68=34 X69=15 X70=48 X71=71 X72=44 X73=110 X74=72 
d NODES 76

   totalWckTime=1.442  totalCpuTime=1.617
